(declare-const a Real)
(declare-const b Real)
(declare-const c Real)
(assert (= (+ a b c) 3))
(assert (> a 0))
(assert (> b 0))
(assert (> c 0))
(assert (not (<= (+ (* -3 (pow (+ (pow a 2) (pow b 2) (* a b)) (/ 1 2))) (* -3 (pow (+ (pow a 2) (pow c 2) (* a c)) (/ 1 2))) (* -3 (pow (+ (pow b 2) (pow c 2) (* b c)) (/ 1 2))) (* (pow (+ (* 5 1 (pow 128 -1)) 4) -3) (pow (+ 4 (* (/ 5 128) a) (* (/ 5 128) b) (* (/ 5 128) c)) 4))) 0)))
(check-sat)
(get-model)
(exit)